Problem:    
Rows:       248
Columns:    89 (72 integer, 72 binary)
Non-zeros:  820
Status:     INTEGER OPTIMAL
Objective:  value = 78.444967 (MINimum)

   No.   Row name        Activity     Lower bound   Upper bound
------ ------------    ------------- ------------- -------------
     1 r.5                    78.445             0               
     2 r.6                  -298.959      -482.066               
     3 r.7                   578.445             0               
     4 r.8                  -465.144      -486.507               
     5 r.9                    78.445             0               
     6 r.10                 -333.559      -480.708               
     7 r.11                  578.445             0               
     8 r.12                 -450.762      -485.618               
     9 r.13                  578.445             0               
    10 r.14                 -442.124      -465.608               
    11 r.15                   78.445             0               
    12 r.16                   12.966      -480.182               
    13 r.17                  578.445             0               
    14 r.18                 -476.516      -482.818               
    15 r.19                   78.445             0               
    16 r.20                  9.96597      -487.268               
    17 r.21                   78.445             0               
    18 r.22                 -316.893      -483.334               
    19 r.23                  578.445             0               
    20 r.24                 -478.637      -488.603               
    21 r.25                   78.445             0               
    22 r.26                 -352.851      -458.024               
    23 r.27                  578.445             0               
    24 r.28                 -436.124      -485.362               
    25 r.29                   78.445             0               
    26 r.30                 -394.826      -458.702               
    27 r.31                  578.445             0               
    28 r.32                 -421.555      -485.431               
    29 r.33                  578.445             0               
    30 r.34                 -499.698      -499.698               
    31 r.35                   78.445             0               
    32 r.36                 -495.364      -495.364               
    33 r.37                        1             1             = 
    34 r.38                        1             1             = 
    35 r.39                        1             1             = 
    36 r.40                        1             1             = 
    37 r.41                        1             1             = 
    38 r.42                        1             1             = 
    39 r.43                        1             1             = 
    40 r.44                        1             1             = 
    41 r.45                    465.4       19.2918               
    42 r.46                   -465.4      -482.066               
    43 r.47                   14.382        14.382               
    44 r.48                  -14.382      -486.507               
    45 r.49                  356.835       34.3916               
    46 r.50                 -359.835      -482.066               
    47 r.51                   478.11        19.818               
    48 r.52                  -475.11      -486.507               
    49 r.53                  322.443       17.1823               
    50 r.54                 -322.443      -482.066               
    51 r.55                   475.11        12.732               
    52 r.56                  -475.11      -486.507               
    53 r.57                  482.066       16.6658               
    54 r.58                 -482.066      -482.066               
    55 r.59                  486.507        11.397               
    56 r.60                 -486.507      -486.507               
    57 r.61                  -53.892      -455.024               
    58 r.62                 -137.165      -482.362               
    59 r.63                 -387.707      -455.024               
    60 r.64                  -470.98      -482.362               
    61 r.65                  404.132       41.2979               
    62 r.66                 -404.132      -482.066               
    63 r.67                   43.589        14.569               
    64 r.68                  -43.589      -486.507               
    65 r.69                 -299.261      -479.066               
    66 r.70                 -465.446      -483.507               
    67 r.71                  196.405      -479.066               
    68 r.72                    30.22      -483.507               
    69 r.73                  34.6001       17.9343               
    70 r.74                 -34.6001      -480.708               
    71 r.75                  485.618        13.493               
    72 r.76                 -485.618      -485.618               
    73 r.77                  391.435       34.3916               
    74 r.78                 -394.435      -480.708               
    75 r.79                  463.728        19.818               
    76 r.80                 -460.728      -485.618               
    77 r.81                  357.043       17.1823               
    78 r.82                 -357.043      -480.708               
    79 r.83                  460.728        12.732               
    80 r.84                 -460.728      -485.618               
    81 r.85                  16.6658       16.6658               
    82 r.86                 -16.6658      -480.708               
    83 r.87                  472.125        11.397               
    84 r.88                 -472.125      -485.618               
    85 r.89                  480.708       41.9756               
    86 r.90                 -480.708      -480.708               
    87 r.91                   14.638        14.638               
    88 r.92                  -14.638      -485.618               
    89 r.93                 -61.2674      -455.702               
    90 r.94                 -87.9963      -482.431               
    91 r.95                 -444.064      -455.702               
    92 r.96                 -470.793      -482.431               
    93 r.97                 -333.861      -477.708               
    94 r.98                 -451.064      -482.618               
    95 r.99                  161.805      -477.708               
    96 r.100                  44.602      -482.618               
    97 r.101                 140.165       17.9343               
    98 r.102                -140.165      -465.608               
    99 r.103                   24.89        13.493               
   100 r.104                  -24.89      -480.182               
   101 r.105                 105.565       19.2918               
   102 r.106                -105.565      -465.608               
   103 r.107                  39.272        14.382               
   104 r.108                 -39.272      -480.182               
   105 r.109                -462.608      -462.608               
   106 r.110                -13.5184      -477.182               
   107 r.111                 -449.09      -462.608               
   108 r.112                       0      -477.182               
   109 r.113                 122.231       16.6658               
   110 r.114                -122.231      -465.608               
   111 r.115                  11.397        11.397               
   112 r.116                 -11.397      -480.182               
   113 r.117                 86.2735       41.9756               
   114 r.118                -86.2735      -465.608               
   115 r.119                   53.91        14.638               
   116 r.120                  -53.91      -480.182               
   117 r.121                -455.702      -455.702               
   118 r.122                -482.431      -482.431               
   119 r.123                -404.792      -455.702               
   120 r.124                -431.521      -482.431               
   121 r.125                -439.426      -462.608               
   122 r.126                 9.66387      -477.182               
   123 r.127                   56.24      -462.608               
   124 r.128                  505.33      -477.182               
   125 r.129                 177.557       17.9343               
   126 r.130                -177.557      -482.818               
   127 r.131                   24.89        13.493               
   128 r.132                  -24.89      -487.268               
   129 r.133                 142.957       19.2918               
   130 r.134                -142.957      -482.818               
   131 r.135                  39.272        14.382               
   132 r.136                 -39.272      -487.268               
   133 r.137                -462.608      -462.608               
   134 r.138                -13.5184      -477.182               
   135 r.139                 -449.09      -462.608               
   136 r.140                       0      -477.182               
   137 r.141                 159.623       16.6658               
   138 r.142                -159.623      -482.818               
   139 r.143                  11.397        11.397               
   140 r.144                 -11.397      -487.268               
   141 r.145                 123.665       41.9756               
   142 r.146                -123.665      -482.818               
   143 r.147                   53.91        14.638               
   144 r.148                  -53.91      -487.268               
   145 r.149                -418.311      -455.702               
   146 r.150                -445.039      -482.431               
   147 r.151                -404.792      -455.702               
   148 r.152                -431.521      -482.431               
   149 r.153                -476.818      -476.818               
   150 r.154                 9.66387      -481.268               
   151 r.155                 18.8484      -476.818               
   152 r.156                  505.33      -481.268               
   153 r.157                 17.9343       17.9343               
   154 r.158                -17.9343      -483.334               
   155 r.159                  13.493        13.493               
   156 r.160                 -13.493      -488.603               
   157 r.161                 483.334       19.2918               
   158 r.162                -483.334      -483.334               
   159 r.163                  27.875        14.382               
   160 r.164                 -27.875      -488.603               
   161 r.165                 374.769       34.3916               
   162 r.166                -377.769      -483.334               
   163 r.167                 491.603        19.818               
   164 r.168                -488.603      -488.603               
   165 r.169                 340.377       17.1823               
   166 r.170                -340.377      -483.334               
   167 r.171                 488.603        12.732               
   168 r.172                -488.603      -488.603               
   169 r.173                -35.9576      -455.024               
   170 r.174                -119.231      -482.362               
   171 r.175                -374.214      -455.024               
   172 r.176                -457.487      -482.362               
   173 r.177                -77.9332      -455.702               
   174 r.178                -104.662      -482.431               
   175 r.179                -416.189      -455.702               
   176 r.180                -442.918      -482.431               
   177 r.181                -317.195      -477.334               
   178 r.182                -478.939      -482.603               
   179 r.183                 178.471      -477.334               
   180 r.184                  16.727      -482.603               
   181 r.185                 -53.892      -455.024               
   182 r.186                -137.165      -482.362               
   183 r.187                -387.707      -455.024               
   184 r.188                 -470.98      -482.362               
   185 r.189                 19.2918       19.2918               
   186 r.190                -19.2918      -458.024               
   187 r.191                 485.362        14.382               
   188 r.192                -485.362      -485.362               
   189 r.193                 410.727       34.3916               
   190 r.194                -413.727      -458.024               
   191 r.195                  449.09        19.818               
   192 r.196                 -446.09      -485.362               
   193 r.197                 376.335       17.1823               
   194 r.198                -376.335      -458.024               
   195 r.199                  446.09        12.732               
   196 r.200                 -446.09      -485.362               
   197 r.201                -35.9576      -455.024               
   198 r.202                -119.231      -482.362               
   199 r.203                -374.214      -455.024               
   200 r.204                -457.487      -482.362               
   201 r.205                 458.024       41.2979               
   202 r.206                -458.024      -458.024               
   203 r.207                  14.569        14.569               
   204 r.208                 -14.569      -485.362               
   205 r.209                 95.8676       17.9343               
   206 r.210                -95.8676      -458.702               
   207 r.211                 456.411        13.493               
   208 r.212                -456.411      -485.431               
   209 r.213                -61.2674      -455.702               
   210 r.214                -87.9963      -482.431               
   211 r.215                -444.064      -455.702               
   212 r.216                -470.793      -482.431               
   213 r.217                -455.702      -455.702               
   214 r.218                -482.431      -482.431               
   215 r.219                -404.792      -455.702               
   216 r.220                -431.521      -482.431               
   217 r.221                -418.311      -455.702               
   218 r.222                -445.039      -482.431               
   219 r.223                -404.792      -455.702               
   220 r.224                -431.521      -482.431               
   221 r.225                -77.9332      -455.702               
   222 r.226                -104.662      -482.431               
   223 r.227                -416.189      -455.702               
   224 r.228                -442.918      -482.431               
   225 r.229                 41.9756       41.9756               
   226 r.230                -41.9756      -458.702               
   227 r.231                 485.431        14.638               
   228 r.232                -485.431      -485.431               
   229 r.233                -299.261      -479.066               
   230 r.234                -465.446      -483.507               
   231 r.235                 196.405      -479.066               
   232 r.236                   30.22      -483.507               
   233 r.237                -333.861      -477.708               
   234 r.238                -451.064      -482.618               
   235 r.239                 161.805      -477.708               
   236 r.240                  44.602      -482.618               
   237 r.241                -439.426      -462.608               
   238 r.242                 9.66387      -477.182               
   239 r.243                   56.24      -462.608               
   240 r.244                  505.33      -477.182               
   241 r.245                -476.818      -476.818               
   242 r.246                 9.66387      -481.268               
   243 r.247                 18.8484      -476.818               
   244 r.248                  505.33      -481.268               
   245 r.249                -317.195      -477.334               
   246 r.250                -478.939      -482.603               
   247 r.251                 178.471      -477.334               
   248 r.252                  16.727      -482.603               

   No. Column name       Activity     Lower bound   Upper bound
------ ------------    ------------- ------------- -------------
     1 tt                     78.445             0               
     2 s_1_1        *              0             0             1 
     3 t_1_1                 377.404             0               
     4 s_1_6        *              0             0             1 
     5 s_2_1        *              1             0             1 
     6 t_2_1                  43.589             0               
     7 s_2_6        *              1             0             1 
     8 s_1_2        *              0             0             1 
     9 t_1_2                 412.004             0               
    10 s_1_7        *              0             0             1 
    11 s_2_2        *              1             0             1 
    12 t_2_2                  29.207             0               
    13 s_2_7        *              1             0             1 
    14 s_1_3        *              1             0             1 
    15 t_1_3                  17.569             0               
    16 s_2_3        *              0             0             1 
    17 t_2_3                  68.479             0               
    18 s_1_4        *              1             0             1 
    19 t_1_4                 54.9606             0               
    20 s_2_4        *              0             0             1 
    21 t_2_4                  68.479             0               
    22 s_1_5        *              0             0             1 
    23 t_1_5                 395.338             0               
    24 s_2_5        *              1             0             1 
    25 t_2_5                  57.082             0               
    26 t_1_6                 431.296             0               
    27 t_2_6                  14.569             0               
    28 t_1_7                 473.271             0               
    29 t_2_7                       0             0               
    30 s_1_8        *              1             0             1 
    31 t_1_8                 78.1429             0               
    32 s_2_8        *              0             0             1 
    33 t_2_8                 573.809             0               
    34 u_1_1_2      *              1             0             1 
    35 u_2_1_2      *              0             0             1 
    36 u_1_1_3      *              0             0             1 
    37 u_2_1_3      *              1             0             1 
    38 u_1_1_4      *              0             0             1 
    39 u_2_1_4      *              1             0             1 
    40 u_1_1_5      *              1             0             1 
    41 u_2_1_5      *              1             0             1 
    42 u_1_1_7      *              1             0             1 
    43 u_2_1_7      *              0             0             1 
    44 u_1_2_1      *              0             0             1 
    45 u_2_2_1      *              1             0             1 
    46 u_1_2_3      *              0             0             1 
    47 u_2_2_3      *              1             0             1 
    48 u_1_2_4      *              0             0             1 
    49 u_2_2_4      *              1             0             1 
    50 u_1_2_5      *              0             0             1 
    51 u_2_2_5      *              1             0             1 
    52 u_1_2_6      *              1             0             1 
    53 u_2_2_6      *              0             0             1 
    54 u_1_3_1      *              1             0             1 
    55 u_2_3_1      *              0             0             1 
    56 u_1_3_2      *              1             0             1 
    57 u_2_3_2      *              0             0             1 
    58 u_1_3_5      *              1             0             1 
    59 u_2_3_5      *              0             0             1 
    60 u_1_3_6      *              1             0             1 
    61 u_2_3_6      *              0             0             1 
    62 u_1_4_1      *              1             0             1 
    63 u_2_4_1      *              0             0             1 
    64 u_1_4_2      *              1             0             1 
    65 u_2_4_2      *              0             0             1 
    66 u_1_4_5      *              1             0             1 
    67 u_2_4_5      *              0             0             1 
    68 u_1_4_6      *              1             0             1 
    69 u_2_4_6      *              0             0             1 
    70 u_1_5_1      *              0             0             1 
    71 u_2_5_1      *              0             0             1 
    72 u_1_5_2      *              1             0             1 
    73 u_2_5_2      *              0             0             1 
    74 u_1_5_3      *              0             0             1 
    75 u_2_5_3      *              1             0             1 
    76 u_1_5_4      *              0             0             1 
    77 u_2_5_4      *              1             0             1 
    78 u_1_6_2      *              0             0             1 
    79 u_2_6_2      *              1             0             1 
    80 u_1_6_3      *              0             0             1 
    81 u_2_6_3      *              1             0             1 
    82 u_1_6_4      *              0             0             1 
    83 u_2_6_4      *              1             0             1 
    84 u_1_6_7      *              1             0             1 
    85 u_2_6_7      *              0             0             1 
    86 u_1_7_1      *              0             0             1 
    87 u_2_7_1      *              1             0             1 
    88 u_1_7_6      *              0             0             1 
    89 u_2_7_6      *              1             0             1 

Integer feasibility conditions:

KKT.PE: max.abs.err = 1.14e-13 on row 83
        max.rel.err = 1.10e-16 on row 172
        High quality

KKT.PB: max.abs.err = 7.99e-14 on row 87
        max.rel.err = 5.11e-15 on row 87
        High quality

End of output
